(set-info :source |printed by MathSAT|)
(declare-fun call_mesi.garde_me1 () Bool)
(declare-fun call_mesi.ite8 () Int)
(declare-fun call_mesi.ite11 () Int)
(declare-fun call_mesi.ite6 () Int)
(declare-fun call_Sofar.Sofar () Bool)
(declare-fun call_mesi.ite30 () Int)
(declare-fun call_mesi.ite9 () Int)
(declare-fun call_mesi.ite () Int)
(declare-fun call_mesi.ite18 () Int)
(declare-fun call_mesi.invalid_me () Int)
(declare-fun call_mesi.garde_me3 () Bool)
(declare-fun call_mesi.ite20 () Int)
(declare-fun call_mesi.ite22 () Int)
(declare-fun param_etat_me2 () Bool)
(declare-fun invalid_me () Int)
(declare-fun call_mesi.ite12 () Int)
(declare-fun param_etat_me3 () Bool)
(declare-fun call_mesi.flby3 () Int)
(declare-fun param_etat_me4 () Bool)
(declare-fun call_mesi.ite10 () Int)
(declare-fun call_mesi.ite3 () Int)
(declare-fun param_etat_me1 () Bool)
(declare-fun call_mesi.ite16 () Int)
(declare-fun call_mesi.flby4 () Int)
(declare-fun modified_me () Int)
(declare-fun call_mesi.ite13 () Int)
(declare-fun call_mesi.ite32 () Int)
(declare-fun call_mesi.garde_me4 () Bool)
(declare-fun call_mesi.ite21 () Int)
(declare-fun flby () Bool)
(declare-fun call_mesi.ite14 () Int)
(declare-fun call_mesi.ite28 () Int)
(declare-fun call_mesi.ite4 () Int)
(declare-fun call_mesi.ite15 () Int)
(declare-fun call_mesi.flby2 () Int)
(declare-fun call_mesi.modified_me () Int)
(declare-fun call_mesi.ite24 () Int)
(declare-fun call_mesi.ite31 () Int)
(declare-fun call_mesi.ite7 () Int)
(declare-fun _OK_ () Bool)
(declare-fun call_mesi.ite5 () Int)
(declare-fun call_mesi.ite19 () Int)
(declare-fun env () Bool)
(declare-fun shared_me () Int)
(declare-fun call_mesi.ite17 () Int)
(declare-fun exclusive_me () Int)
(declare-fun call_mesi.ite23 () Int)
(declare-fun call_mesi.ite27 () Int)
(declare-fun call_excludes4.excludes () Bool)
(declare-fun call_mesi.ite29 () Int)
(declare-fun call_mesi.flby () Int)
(declare-fun call_mesi.shared_me () Int)
(declare-fun call_mesi.exclusive_me () Int)
(declare-fun call_mesi.ite25 () Int)
(declare-fun call_mesi.ite26 () Int)
(declare-fun call_mesi.ite2 () Int)
(declare-fun call_Sofar.flby () Bool)
(define-fun .def_819 () Bool (= call_Sofar.flby call_Sofar.Sofar))
(define-fun .def_814 () Bool (and param_etat_me4 param_etat_me3))
(define-fun .def_808 () Bool (and param_etat_me1 param_etat_me2))
(define-fun .def_809 () Bool (and param_etat_me1 .def_808))
(define-fun .def_810 () Bool (and param_etat_me3 .def_809))
(define-fun .def_807 () Bool (and param_etat_me4 param_etat_me1))
(define-fun .def_811 () Bool (or .def_807 .def_810))
(define-fun .def_806 () Bool (and param_etat_me3 param_etat_me2))
(define-fun .def_812 () Bool (or .def_806 .def_811))
(define-fun .def_805 () Bool (and param_etat_me4 param_etat_me2))
(define-fun .def_813 () Bool (or .def_805 .def_812))
(define-fun .def_815 () Bool (or .def_813 .def_814))
(define-fun .def_816 () Bool (not .def_815))
(define-fun .def_817 () Bool (= call_excludes4.excludes .def_816))
(define-fun .def_803 () Bool (= call_mesi.flby4 call_mesi.invalid_me))
(define-fun .def_801 () Bool (= call_mesi.flby3 call_mesi.shared_me))
(define-fun .def_799 () Bool (= call_mesi.flby2 call_mesi.exclusive_me))
(define-fun .def_797 () Bool (= call_mesi.flby call_mesi.modified_me))
(define-fun .def_793 () Bool (= call_mesi.ite30 call_mesi.ite31))
(define-fun .def_794 () Bool (or param_etat_me2 .def_793))
(define-fun .def_790 () Bool (= call_mesi.ite31 call_mesi.ite26))
(define-fun .def_772 () Bool (not param_etat_me2))
(define-fun .def_791 () Bool (or .def_772 .def_790))
(define-fun .def_786 () Bool (= call_mesi.ite22 call_mesi.ite23))
(define-fun .def_787 () Bool (or param_etat_me2 .def_786))
(define-fun .def_783 () Bool (= call_mesi.ite23 call_mesi.ite18))
(define-fun .def_784 () Bool (or .def_772 .def_783))
(define-fun .def_779 () Bool (= call_mesi.ite14 call_mesi.ite15))
(define-fun .def_780 () Bool (or param_etat_me2 .def_779))
(define-fun .def_776 () Bool (= call_mesi.ite15 call_mesi.ite10))
(define-fun .def_777 () Bool (or .def_772 .def_776))
(define-fun .def_771 () Bool (= call_mesi.ite7 call_mesi.ite2))
(define-fun .def_773 () Bool (or .def_771 .def_772))
(define-fun .def_767 () Bool (= call_mesi.ite6 call_mesi.ite7))
(define-fun .def_769 () Bool (or .def_767 param_etat_me2))
(define-fun .def_774 () Bool (and .def_769 .def_773))
(define-fun .def_778 () Bool (and .def_774 .def_777))
(define-fun .def_781 () Bool (and .def_778 .def_780))
(define-fun .def_785 () Bool (and .def_781 .def_784))
(define-fun .def_788 () Bool (and .def_785 .def_787))
(define-fun .def_792 () Bool (and .def_788 .def_791))
(define-fun .def_795 () Bool (and .def_792 .def_794))
(define-fun .def_763 () Bool (= call_mesi.ite32 call_mesi.ite31))
(define-fun .def_764 () Bool (or param_etat_me1 .def_763))
(define-fun .def_759 () Bool (= call_mesi.ite25 call_mesi.ite32))
(define-fun .def_737 () Bool (not param_etat_me1))
(define-fun .def_760 () Bool (or .def_737 .def_759))
(define-fun .def_754 () Bool (= call_mesi.ite24 call_mesi.ite23))
(define-fun .def_755 () Bool (or param_etat_me1 .def_754))
(define-fun .def_750 () Bool (= call_mesi.ite17 call_mesi.ite24))
(define-fun .def_751 () Bool (or .def_737 .def_750))
(define-fun .def_745 () Bool (= call_mesi.ite16 call_mesi.ite15))
(define-fun .def_746 () Bool (or param_etat_me1 .def_745))
(define-fun .def_741 () Bool (= call_mesi.ite9 call_mesi.ite16))
(define-fun .def_742 () Bool (or .def_737 .def_741))
(define-fun .def_736 () Bool (= call_mesi.ite call_mesi.ite8))
(define-fun .def_738 () Bool (or .def_736 .def_737))
(define-fun .def_733 () Bool (= call_mesi.ite8 call_mesi.ite7))
(define-fun .def_735 () Bool (or .def_733 param_etat_me1))
(define-fun .def_739 () Bool (and .def_735 .def_738))
(define-fun .def_743 () Bool (and .def_739 .def_742))
(define-fun .def_747 () Bool (and .def_743 .def_746))
(define-fun .def_752 () Bool (and .def_747 .def_751))
(define-fun .def_756 () Bool (and .def_752 .def_755))
(define-fun .def_761 () Bool (and .def_756 .def_760))
(define-fun .def_765 () Bool (and .def_761 .def_764))
(define-fun .def_729 () Bool (= env call_Sofar.Sofar))
(define-fun .def_726 () Bool (= invalid_me call_mesi.invalid_me))
(define-fun .def_722 () Bool (= shared_me call_mesi.shared_me))
(define-fun .def_718 () Bool (= exclusive_me call_mesi.exclusive_me))
(define-fun .def_714 () Bool (= modified_me call_mesi.modified_me))
(define-fun .def_708 () Bool (= call_mesi.ite29 call_mesi.ite30))
(define-fun .def_709 () Bool (or param_etat_me3 .def_708))
(define-fun .def_705 () Bool (= call_mesi.ite27 call_mesi.ite30))
(define-fun .def_686 () Bool (not param_etat_me3))
(define-fun .def_706 () Bool (or .def_686 .def_705))
(define-fun .def_700 () Bool (= call_mesi.ite21 call_mesi.ite22))
(define-fun .def_701 () Bool (or param_etat_me3 .def_700))
(define-fun .def_697 () Bool (= call_mesi.ite19 call_mesi.ite22))
(define-fun .def_698 () Bool (or .def_686 .def_697))
(define-fun .def_693 () Bool (= call_mesi.ite13 call_mesi.ite14))
(define-fun .def_694 () Bool (or param_etat_me3 .def_693))
(define-fun .def_690 () Bool (= call_mesi.ite11 call_mesi.ite14))
(define-fun .def_691 () Bool (or .def_686 .def_690))
(define-fun .def_685 () Bool (= call_mesi.ite3 call_mesi.ite6))
(define-fun .def_687 () Bool (or .def_685 .def_686))
(define-fun .def_682 () Bool (= call_mesi.ite5 call_mesi.ite6))
(define-fun .def_684 () Bool (or .def_682 param_etat_me3))
(define-fun .def_688 () Bool (and .def_684 .def_687))
(define-fun .def_692 () Bool (and .def_688 .def_691))
(define-fun .def_695 () Bool (and .def_692 .def_694))
(define-fun .def_699 () Bool (and .def_695 .def_698))
(define-fun .def_702 () Bool (and .def_699 .def_701))
(define-fun .def_707 () Bool (and .def_702 .def_706))
(define-fun .def_710 () Bool (and .def_707 .def_709))
(define-fun .def_678 () Bool (not env))
(define-fun .def_679 () Bool (or flby .def_678))
(define-fun .def_680 () Bool (= _OK_ .def_679))
(define-fun .def_711 () Bool (and .def_680 .def_710))
(define-fun .def_715 () Bool (and .def_711 .def_714))
(define-fun .def_719 () Bool (and .def_715 .def_718))
(define-fun .def_723 () Bool (and .def_719 .def_722))
(define-fun .def_727 () Bool (and .def_723 .def_726))
(define-fun .def_730 () Bool (and .def_727 .def_729))
(define-fun .def_766 () Bool (and .def_730 .def_765))
(define-fun .def_796 () Bool (and .def_766 .def_795))
(define-fun .def_798 () Bool (and .def_796 .def_797))
(define-fun .def_800 () Bool (and .def_798 .def_799))
(define-fun .def_802 () Bool (and .def_800 .def_801))
(define-fun .def_804 () Bool (and .def_802 .def_803))
(define-fun .def_818 () Bool (and .def_804 .def_817))
(define-fun .def_820 () Bool (and .def_818 .def_819))
(define-fun .def_674 () Bool (= call_excludes4.excludes call_Sofar.flby))
(define-fun .def_670 () Bool (= call_mesi.flby4 3))
(define-fun .def_667 () Bool (= call_mesi.flby3 0))
(define-fun .def_664 () Bool (= call_mesi.flby2 0))
(define-fun .def_661 () Bool (= call_mesi.flby 0))
(define-fun .def_656 () Bool (= call_mesi.ite20 0))
(define-fun .def_651 () Bool (not call_mesi.garde_me4))
(define-fun .def_657 () Bool (or .def_651 .def_656))
(define-fun .def_653 () Bool (= call_mesi.ite4 0))
(define-fun .def_654 () Bool (or .def_651 .def_653))
(define-fun .def_649 () Bool (= call_mesi.ite12 1))
(define-fun .def_652 () Bool (or .def_649 .def_651))
(define-fun .def_655 () Bool (and .def_652 .def_654))
(define-fun .def_658 () Bool (and .def_655 .def_657))
(define-fun .def_645 () Bool (= call_mesi.ite19 0))
(define-fun .def_638 () Bool (not call_mesi.garde_me3))
(define-fun .def_646 () Bool (or .def_638 .def_645))
(define-fun .def_641 () Bool (= call_mesi.ite3 0))
(define-fun .def_642 () Bool (or .def_638 .def_641))
(define-fun .def_636 () Bool (= call_mesi.ite11 1))
(define-fun .def_639 () Bool (or .def_636 .def_638))
(define-fun .def_643 () Bool (and .def_639 .def_642))
(define-fun .def_647 () Bool (and .def_643 .def_646))
(define-fun .def_631 () Bool (= call_mesi.ite 0))
(define-fun .def_628 () Bool (not call_mesi.garde_me1))
(define-fun .def_632 () Bool (or .def_628 .def_631))
(define-fun .def_626 () Bool (= call_mesi.ite9 0))
(define-fun .def_629 () Bool (or .def_626 .def_628))
(define-fun .def_633 () Bool (and .def_629 .def_632))
(define-fun .def_620 () Bool (= call_mesi.ite28 call_mesi.ite29))
(define-fun .def_606 () Bool (not param_etat_me4))
(define-fun .def_621 () Bool (or .def_606 .def_620))
(define-fun .def_615 () Bool (= call_mesi.ite20 call_mesi.ite21))
(define-fun .def_616 () Bool (or .def_606 .def_615))
(define-fun .def_610 () Bool (= call_mesi.ite4 call_mesi.ite5))
(define-fun .def_611 () Bool (or .def_606 .def_610))
(define-fun .def_604 () Bool (= call_mesi.ite12 call_mesi.ite13))
(define-fun .def_607 () Bool (or .def_604 .def_606))
(define-fun .def_612 () Bool (and .def_607 .def_611))
(define-fun .def_617 () Bool (and .def_612 .def_616))
(define-fun .def_622 () Bool (and .def_617 .def_621))
(define-fun .def_624 () Bool (and .def_622 flby))
(define-fun .def_634 () Bool (and .def_624 .def_633))
(define-fun .def_648 () Bool (and .def_634 .def_647))
(define-fun .def_659 () Bool (and .def_648 .def_658))
(define-fun .def_662 () Bool (and .def_659 .def_661))
(define-fun .def_665 () Bool (and .def_662 .def_664))
(define-fun .def_668 () Bool (and .def_665 .def_667))
(define-fun .def_671 () Bool (and .def_668 .def_670))
(define-fun .def_675 () Bool (and .def_671 .def_674))
(define-fun .def_821 () Bool (and .def_675 .def_820))
(assert .def_821)
